PRODUCT = { KITT, HAL, T2000, GORT, R2 };
RESOURCE = { MONEY, AVAIL_KITT, AVAIL_HAL,
             AVAIL_T2000, AVAIL_GORT, AVAIL_R2 };
capacity = [10000, 3, 1, 9, 7, 10];
consumption =
  [| 400.0, 1600.0, 300.0, 500.0, 670.0
   | 1.0, 0.0, 0.0, 0.0, 0.0
   | 0.0, 1.0, 0.0, 0.0, 0.0
   | 0.0, 0.0, 1.0, 0.0, 0.0
   | 0.0, 0.0, 0.0, 1.0, 0.0
   | 0.0, 0.0, 0.0, 0.0, 1.0 |];
profit = [4.0, 40.0, 8.0, 12.0, 5.0];
